language ESSENCE' 1.0
letting input=[64,61,34,1,77,47,38,59,22,65,74,30,52,79,76,31,47,74,14,89,54,80,16,9,6,20,15,51,9,81,39,63,43,27,8,56,71,11,46,14,90,38,63,73,89]
letting output=[60,79,55,12,14,36,42,82,6,42,60,69,43,69,49,81,55,87,50,77,25,11,36,30,9,83,11,59,48,72,64,44,22,90,75,34,53,49,43,59,12,90,90,19,8]
letting MAX_OPS=999
letting num_registers=1
